webassembly/ejemplos_dzn/9/folder9_json_74.dzn
TERM = { '.', 's(2)', 'local_0', 'local_1', 's(1)', 's(0)'};
null = '.';
s = 9;
n = 8;
ndeps = 0;
max_registers_sz = 4;
NR = 1;
registers = [|'local_0', 'local_1'|];
dependencies = [| |];
GET_ENUM = { GET1, GET2, GET3, GET4, GET5};
SET_ENUM = { SET1, SET2, SET3, SET4, SET5};
TEE_ENUM = { TEE1, TEE2, TEE3, TEE4, TEE5};
N = 4;
OP = { 'i32.load8_s_3', 'i32.load_7', 'i32.load8_s_8', 'local.get_0' };
in_ops = [1, 1, 1, 0 ];
out_ops = [1, 1, 1, 1 ];
in1 = ['local_1', 's(0)', 's(1)', '.' ];
in2 = ['.', '.', '.', '.' ];
in3 = ['.', '.', '.', '.' ];
out1 = ['s(0)', 's(1)', 's(2)', 'local_1' ];
out2 = ['.', '.', '.', '.' ];
out3 = ['.', '.', '.', '.' ];
comm = [false, false, false, false ];
gas = [1, 1, 1, 1 ];
sz = [1, 1, 1, 1 ];
stor = [false, false, false, false ];
lb = [ 1, 1, 1, 1 ];
ub = [ 9, 9, 9, 9 ];
startstack = [ null, null, null, null, null, null, null, null ];
endstack = [ 's(2)', 'local_1', null, null, null, null, null, null ];
