webassembly/ejemplos_results/9/folder9_json_74.txt
value = 9;
fgas = [1, 1, 1, 1, 1, 1, 1, 1, 1];
fsize = [1, 1, 1, 1, 1, 1, 1, 1, 1];
states = 
[|     '.',     '.',    '.', '.', '.', '.', '.', '.'
 | local_1,  's(0)',    '.', '.', '.', '.', '.', '.'
 |  's(0)',  's(0)',    '.', '.', '.', '.', '.', '.'
 |  's(1)',  's(0)',    '.', '.', '.', '.', '.', '.'
 |  's(2)',     '.',    '.', '.', '.', '.', '.', '.'
 | local_1,     '.',    '.', '.', '.', '.', '.', '.'
 | local_1,  's(0)',    '.', '.', '.', '.', '.', '.'
 | local_1,  's(1)', 's(0)', '.', '.', '.', '.', '.'
 |  's(1)',  's(0)',    '.', '.', '.', '.', '.', '.'
 |  's(2)', local_1,    '.', '.', '.', '.', '.', '.'
 |];
register_states = 
[| local_0, '.', '.', '.', '.'
 | local_0, '.', '.', '.', '.'
 | local_0, '.', '.', '.', '.'
 | local_0, '.', '.', '.', '.'
 | local_0, '.', '.', '.', '.'
 | local_0, '.', '.', '.', '.'
 | local_0, '.', '.', '.', '.'
 | local_0, '.', '.', '.', '.'
 | local_1, '.', '.', '.', '.'
 | local_1, '.', '.', '.', '.'
 |];
program = [O('local.get_0'), O('i32.load8_s_3'), O('i32.load_7'), O('i32.load8_s_8'), O('local.get_0'), O('local.get_0'), O('local.get_0'), S(SET1), O('i32.load8_s_8')];
% time elapsed: 0.07 s
----------
value = 8;
fgas = [1, 1, 1, 1, 1, 1, 2, 1, 0];
fsize = [1, 1, 1, 1, 1, 1, 1, 1, 1];
states = 
[|     '.',     '.',    '.', '.', '.', '.', '.', '.'
 | local_1,     '.',    '.', '.', '.', '.', '.', '.'
 | local_1,  's(0)',    '.', '.', '.', '.', '.', '.'
 | local_1, local_1, 's(0)', '.', '.', '.', '.', '.'
 | local_1,  's(0)',    '.', '.', '.', '.', '.', '.'
 |  's(0)',  's(0)',    '.', '.', '.', '.', '.', '.'
 |  's(1)',  's(1)',    '.', '.', '.', '.', '.', '.'
 |  's(1)',     '.',    '.', '.', '.', '.', '.', '.'
 |  's(2)', local_1,    '.', '.', '.', '.', '.', '.'
 |  's(2)', local_1,    '.', '.', '.', '.', '.', '.'
 |];
register_states = 
[| local_0, '.', '.', '.', '.'
 | local_0, '.', '.', '.', '.'
 | local_0, '.', '.', '.', '.'
 | local_0, '.', '.', '.', '.'
 | local_1, '.', '.', '.', '.'
 | local_1, '.', '.', '.', '.'
 | local_1, '.', '.', '.', '.'
 | local_1, '.', '.', '.', '.'
 | local_1, '.', '.', '.', '.'
 | local_1, '.', '.', '.', '.'
 |];
program = [O('local.get_0'), O('local.get_0'), O('local.get_0'), S(SET1), O('i32.load8_s_3'), O('i32.load_7'), POP, O('i32.load8_s_8'), NOP];
% time elapsed: 0.07 s
----------
value = 7;
fgas = [1, 1, 1, 1, 1, 1, 1, 0, 0];
fsize = [1, 1, 1, 1, 1, 1, 1, 1, 1];
states = 
[|     '.',     '.',     '.', '.', '.', '.', '.', '.'
 | local_1,     '.',     '.', '.', '.', '.', '.', '.'
 | local_1,  's(0)',     '.', '.', '.', '.', '.', '.'
 |  's(0)',  's(0)',     '.', '.', '.', '.', '.', '.'
 |  's(1)', local_1,     '.', '.', '.', '.', '.', '.'
 |  's(2)', local_1,     '.', '.', '.', '.', '.', '.'
 | local_1,  's(2)', local_1, '.', '.', '.', '.', '.'
 |  's(2)', local_1,     '.', '.', '.', '.', '.', '.'
 |  's(2)', local_1,     '.', '.', '.', '.', '.', '.'
 |  's(2)', local_1,     '.', '.', '.', '.', '.', '.'
 |];
register_states = 
[| local_0, '.', '.', '.', '.'
 | local_0, '.', '.', '.', '.'
 | local_0, '.', '.', '.', '.'
 | local_0, '.', '.', '.', '.'
 | local_0, '.', '.', '.', '.'
 | local_0, '.', '.', '.', '.'
 | local_0, '.', '.', '.', '.'
 | local_1, '.', '.', '.', '.'
 | local_1, '.', '.', '.', '.'
 | local_1, '.', '.', '.', '.'
 |];
program = [O('local.get_0'), O('local.get_0'), O('i32.load8_s_3'), O('i32.load_7'), O('i32.load8_s_8'), O('local.get_0'), S(SET1), NOP, NOP];
% time elapsed: 0.07 s
----------
value = 6;
fgas = [1, 1, 1, 1, 1, 1, 0, 0, 0];
fsize = [1, 1, 1, 1, 1, 1, 1, 1, 1];
states = 
[|     '.',     '.', '.', '.', '.', '.', '.', '.'
 | local_1,  's(1)', '.', '.', '.', '.', '.', '.'
 |  's(1)',     '.', '.', '.', '.', '.', '.', '.'
 | local_1,  's(1)', '.', '.', '.', '.', '.', '.'
 |  's(0)',  's(0)', '.', '.', '.', '.', '.', '.'
 |  's(1)',  's(2)', '.', '.', '.', '.', '.', '.'
 |  's(2)', local_1, '.', '.', '.', '.', '.', '.'
 |  's(2)', local_1, '.', '.', '.', '.', '.', '.'
 |  's(2)', local_1, '.', '.', '.', '.', '.', '.'
 |  's(2)', local_1, '.', '.', '.', '.', '.', '.'
 |];
register_states = 
[| local_0, '.', '.', '.', '.'
 | local_0, '.', '.', '.', '.'
 | local_1, '.', '.', '.', '.'
 | local_1, '.', '.', '.', '.'
 | local_1, '.', '.', '.', '.'
 | local_1, '.', '.', '.', '.'
 | local_1, '.', '.', '.', '.'
 | local_1, '.', '.', '.', '.'
 | local_1, '.', '.', '.', '.'
 | local_1, '.', '.', '.', '.'
 |];
program = [O('local.get_0'), S(SET1), O('local.get_0'), O('i32.load8_s_3'), O('i32.load_7'), O('i32.load8_s_8'), NOP, NOP, NOP];
% time elapsed: 0.07 s
----------
value = 5;
fgas = [1, 1, 1, 1, 1, 0, 0, 0, 0];
fsize = [1, 1, 1, 1, 1, 1, 1, 1, 1];
states = 
[|     '.',     '.', '.', '.', '.', '.', '.', '.'
 | local_1, local_1, '.', '.', '.', '.', '.', '.'
 | local_1,     '.', '.', '.', '.', '.', '.', '.'
 |  's(0)',  's(0)', '.', '.', '.', '.', '.', '.'
 |  's(1)',  's(0)', '.', '.', '.', '.', '.', '.'
 |  's(2)', local_1, '.', '.', '.', '.', '.', '.'
 |  's(2)', local_1, '.', '.', '.', '.', '.', '.'
 |  's(2)', local_1, '.', '.', '.', '.', '.', '.'
 |  's(2)', local_1, '.', '.', '.', '.', '.', '.'
 |  's(2)', local_1, '.', '.', '.', '.', '.', '.'
 |];
register_states = 
[| local_0, '.', '.', '.', '.'
 | local_0, '.', '.', '.', '.'
 | local_1, '.', '.', '.', '.'
 | local_1, '.', '.', '.', '.'
 | local_1, '.', '.', '.', '.'
 | local_1, '.', '.', '.', '.'
 | local_1, '.', '.', '.', '.'
 | local_1, '.', '.', '.', '.'
 | local_1, '.', '.', '.', '.'
 | local_1, '.', '.', '.', '.'
 |];
program = [O('local.get_0'), S(SET1), O('i32.load8_s_3'), O('i32.load_7'), O('i32.load8_s_8'), NOP, NOP, NOP, NOP];
% time elapsed: 0.07 s
----------
==========
% time elapsed: 0.07 s
% [value > 4]
